% Noms des ingrédients (unité de mesure)
% On prend tu l'hypothèse que les trucs de garde manger (e.g. sel, sucre) sont toujours dispo et on les ignore?
noms_ingredients = ["farine (g)", "sucre (g)", "oeufs (nb)", "lait (ml)", "sel (g)", "beurre (g)", "crème (ml)"];

% Quantités pour chaque ingrédient exprimée en fonction de l'unité de mesure
qte_disponible = [500, 500, 4, 2000, 500, 500, 400];

% Nombre de jours avant la péremption d'un ingrédient
peremption = [600, 600, 10, 5, 1000, 60, 8];
